(set-logic QF_S)
(declare-fun var0 () String)
(assert (RegexIn var0 (RegexConcat (RegexUnion (RegexStar (Str2Reg "000")) (RegexStar (Str2Reg "111"))) (RegexConcat (RegexStar (RegexPlus (Str2Reg "22"))) (RegexConcat (RegexStar (RegexPlus (Str2Reg "333"))) (RegexConcat (RegexUnion (RegexPlus (Str2Reg "44")) (RegexPlus (Str2Reg "5"))) (RegexConcat (RegexPlus (RegexStar (Str2Reg "66"))) (RegexConcat (RegexStar (RegexPlus (Str2Reg "77"))) (RegexConcat (RegexStar (RegexUnion (Str2Reg "888") (Str2Reg "9"))) (RegexConcat (RegexStar (RegexStar (Str2Reg "aaa"))) (RegexConcat (RegexPlus (RegexStar (Str2Reg "bb"))) (RegexConcat (RegexStar (RegexPlus (Str2Reg "c"))) (RegexConcat (RegexPlus (RegexPlus (Str2Reg "d"))) (RegexConcat (RegexUnion (RegexPlus (Str2Reg "e")) (RegexPlus (Str2Reg "fff"))) (RegexConcat (RegexPlus (RegexUnion (Str2Reg "ggg") (Str2Reg "hh"))) (RegexConcat (RegexUnion (RegexPlus (Str2Reg "iii")) (RegexPlus (Str2Reg "jj"))) (RegexConcat (RegexStar (RegexPlus (Str2Reg "k"))) (RegexConcat (RegexStar (RegexUnion (Str2Reg "l") (Str2Reg "mmm"))) (RegexConcat (RegexUnion (RegexUnion (Str2Reg "nnn") (Str2Reg "o")) (RegexUnion (Str2Reg "p") (Str2Reg "q"))) (RegexConcat (RegexPlus (RegexUnion (Str2Reg "rrr") (Str2Reg "ss"))) (RegexConcat (RegexUnion (RegexStar (Str2Reg "t")) (RegexStar (Str2Reg "uuu"))) (RegexConcat (RegexPlus (RegexUnion (Str2Reg "v") (Str2Reg "ww"))) (RegexConcat (RegexStar (RegexUnion (Str2Reg "xxx") (Str2Reg "yy"))) (RegexConcat (RegexStar (RegexPlus (Str2Reg "zzz"))) (RegexConcat (RegexUnion (RegexPlus (Str2Reg "AA")) (RegexPlus (Str2Reg "BBB"))) (RegexConcat (RegexUnion (RegexStar (Str2Reg "CC")) (RegexStar (Str2Reg "DD"))) (RegexConcat (RegexUnion (RegexUnion (Str2Reg "E") (Str2Reg "F")) (RegexUnion (Str2Reg "GG") (Str2Reg "HH"))) (RegexConcat (RegexStar (RegexPlus (Str2Reg "II"))) (RegexConcat (RegexUnion (RegexPlus (Str2Reg "J")) (RegexPlus (Str2Reg "KK"))) (RegexConcat (RegexStar (RegexPlus (Str2Reg "LLL"))) (RegexConcat (RegexUnion (RegexUnion (Str2Reg "MM") (Str2Reg "NN")) (RegexUnion (Str2Reg "OOO") (Str2Reg "PPP"))) (RegexConcat (RegexPlus (RegexUnion (Str2Reg "Q") (Str2Reg "RRR"))) (RegexConcat (RegexPlus (RegexUnion (Str2Reg "SS") (Str2Reg "T"))) (RegexConcat (RegexPlus (RegexStar (Str2Reg "U"))) (RegexConcat (RegexUnion (RegexUnion (Str2Reg "VVV") (Str2Reg "W")) (RegexUnion (Str2Reg "XX") (Str2Reg "YY"))) (RegexConcat (RegexStar (RegexPlus (Str2Reg "Z"))) (RegexConcat (RegexUnion (RegexPlus (Str2Reg "!!")) (RegexPlus (Str2Reg "\""))) (RegexConcat (RegexUnion (RegexStar (Str2Reg "###")) (RegexStar (Str2Reg "$$"))) (RegexConcat (RegexStar (RegexPlus (Str2Reg "%%"))) (RegexConcat (RegexUnion (RegexUnion (Str2Reg "&&&") (Str2Reg "'''")) (RegexUnion (Str2Reg "(") (Str2Reg "))"))) (RegexPlus (RegexStar (Str2Reg "**")))))))))))))))))))))))))))))))))))))))))))
(check-sat)